c turning on binary mode checking
c parsing input formula with 259840 variables and 1039919 clauses
c finished parsing, read 24293936 bytes from proof file
c detected empty clause; start verification via backward checking
c 10282 of 1039919 clauses in core                            
c 13826 of 621017 lemmas in core using 95726 resolution steps
c 0 RAT lemmas in core; 792 redundant literals in core lemmas
s VERIFIED
c verification time: 2.922 seconds
